NAME 
ROWS
 N  OBJ
 L  R0      
 L  R1      
 E  R2      
 E  R3      
 E  R4      
 E  R5      
 E  R6      
 E  R7      
 E  R8      
 E  R9      
 E  R10     
 E  R11     
 E  R12     
 E  R13     
 E  R14     
 E  R15     
 E  R16     
 E  R17     
 E  R18     
 E  R19     
 E  R20     
 E  R21     
COLUMNS
    MARKER    'MARKER'                 'INTORG'
    I0(8)     OBJ       -16
    I0(8)     R0        147
    I0(8)     R1        -199
    I0(8)     R2        19
    I0(8)     R3        2
    I0(8)     R4        6
    I0(8)     R7        8
    I0(8)     R8        7
    I0(8)     R21       1
    I1(9)     OBJ       157
    I1(9)     R0        23
    I1(9)     R1        50
    I1(9)     R2        1
    I1(9)     R3        6
    I1(9)     R6        18
    I1(9)     R7        17
    I1(9)     R8        16
    I1(9)     R9        7
    I1(9)     R21       1
    I2(6)     OBJ       123
    I2(6)     R0        -196
    I2(6)     R1        -198
    I2(6)     R5        13
    I2(6)     R6        14
    I2(6)     R7        18
    I2(6)     R21       1
    I3(10)    OBJ       108
    I3(10)    R0        -49
    I3(10)    R1        90
    I3(10)    R3        6
    I3(10)    R4        11
    I3(10)    R5        12
    I3(10)    R6        11
    I3(10)    R7        4
    I3(10)    R8        1
    I3(10)    R9        3
    I3(10)    R21       1
    I4(6)     OBJ       46
    I4(6)     R0        -71
    I4(6)     R1        -31
    I4(6)     R3        11
    I4(6)     R4        6
    I4(6)     R6        15
    I4(6)     R21       1
    I5(9)     OBJ       115
    I5(9)     R0        191
    I5(9)     R1        -200
    I5(9)     R3        15
    I5(9)     R4        10
    I5(9)     R5        17
    I5(9)     R6        11
    I5(9)     R7        -1
    I5(9)     R8        17
    I5(9)     R21       1
    I6(8)     OBJ       90
    I6(8)     R0        40
    I6(8)     R1        69
    I6(8)     R2        7
    I6(8)     R3        19
    I6(8)     R5        9
    I6(8)     R7        11
    I6(8)     R8        19
    I6(8)     R21       1
    I7(8)     OBJ       -140
    I7(8)     R0        -168
    I7(8)     R1        -16
    I7(8)     R2        5
    I7(8)     R4        15
    I7(8)     R5        8
    I7(8)     R6        4
    I7(8)     R7        16
    I7(8)     R21       1
    MARKER    'MARKER'                 'INTEND'
    C8(12)    OBJ       5
    C8(12)    R0        5
    C8(12)    R1        -3
    C8(12)    R2        10
    C8(12)    R4        9
    C8(12)    R7        15
    C8(12)    R10       6
    C8(12)    R12       1
    C8(12)    R13       11
    C8(12)    R14       4
    C8(12)    R17       1
    C8(12)    R18       12
    C8(12)    R20       13
    C9(13)    OBJ       1
    C9(13)    R1        -5
    C9(13)    R2        5
    C9(13)    R5        5
    C9(13)    R6        10
    C9(13)    R8        18
    C9(13)    R9        6
    C9(13)    R10       9
    C9(13)    R11       18
    C9(13)    R12       2
    C9(13)    R15       7
    C9(13)    R17       5
    C9(13)    R19       16
    C9(13)    R20       12
    C10(9)    OBJ       6
    C10(9)    R0        2
    C10(9)    R1        7
    C10(9)    R4        11
    C10(9)    R6        9
    C10(9)    R7        6
    C10(9)    R15       9
    C10(9)    R16       2
    C10(9)    R18       11
    C10(9)    R20       12
    C11(13)   OBJ       -1
    C11(13)   R0        4
    C11(13)   R1        3
    C11(13)   R4        3
    C11(13)   R5        -1
    C11(13)   R6        17
    C11(13)   R7        4
    C11(13)   R9        14
    C11(13)   R13       -1
    C11(13)   R14       12
    C11(13)   R15       14
    C11(13)   R18       16
    C11(13)   R19       5
    C11(13)   R20       18
    C12(11)   R0        8
    C12(11)   R1        -3
    C12(11)   R6        8
    C12(11)   R10       16
    C12(11)   R12       10
    C12(11)   R13       17
    C12(11)   R14       6
    C12(11)   R15       19
    C12(11)   R17       9
    C12(11)   R18       18
    C12(11)   R19       14
    C13(11)   OBJ       -4
    C13(11)   R0        7
    C13(11)   R1        1
    C13(11)   R3        -1
    C13(11)   R4        13
    C13(11)   R6        15
    C13(11)   R9        13
    C13(11)   R10       -1
    C13(11)   R15       1
    C13(11)   R17       19
    C13(11)   R18       -1
    C13(11)   R19       10
    C14(10)   OBJ       -1
    C14(10)   R0        2
    C14(10)   R1        -7
    C14(10)   R9        1
    C14(10)   R10       3
    C14(10)   R11       19
    C14(10)   R13       -1
    C14(10)   R14       12
    C14(10)   R17       4
    C14(10)   R19       1
    C14(10)   R20       2
    C15(10)   OBJ       -4
    C15(10)   R1        5
    C15(10)   R3        3
    C15(10)   R5        5
    C15(10)   R8        10
    C15(10)   R10       9
    C15(10)   R12       18
    C15(10)   R13       5
    C15(10)   R14       9
    C15(10)   R16       17
    C15(10)   R18       15
    C16(13)   OBJ       -5
    C16(13)   R0        -2
    C16(13)   R1        6
    C16(13)   R2        8
    C16(13)   R3        9
    C16(13)   R4        13
    C16(13)   R5        13
    C16(13)   R8        2
    C16(13)   R9        11
    C16(13)   R10       6
    C16(13)   R12       10
    C16(13)   R14       3
    C16(13)   R17       11
    C16(13)   R19       14
    C17(9)    OBJ       -9
    C17(9)    R0        3
    C17(9)    R1        7
    C17(9)    R3        14
    C17(9)    R5        16
    C17(9)    R11       17
    C17(9)    R12       -1
    C17(9)    R13       4
    C17(9)    R16       7
    C17(9)    R18       4
    C18(9)    OBJ       9
    C18(9)    R0        4
    C18(9)    R1        -2
    C18(9)    R2        10
    C18(9)    R5        12
    C18(9)    R6        1
    C18(9)    R13       9
    C18(9)    R15       4
    C18(9)    R16       16
    C18(9)    R17       12
    C19(14)   OBJ       -1
    C19(14)   R0        6
    C19(14)   R1        -10
    C19(14)   R3        15
    C19(14)   R6        7
    C19(14)   R7        18
    C19(14)   R8        14
    C19(14)   R9        7
    C19(14)   R11       10
    C19(14)   R13       2
    C19(14)   R14       12
    C19(14)   R15       10
    C19(14)   R16       6
    C19(14)   R17       -1
    C19(14)   R20       10
    C20(1)    R2        1
    C21(1)    R3        1
    C22(1)    R4        1
    C23(1)    R5        1
    C24(1)    R6        1
    C25(1)    R7        1
    C26(1)    R8        1
    C27(1)    R9        1
    C28(1)    R10       1
    C29(1)    R11       1
    C30(1)    R12       1
    C31(1)    R13       1
    C32(1)    R14       1
    C33(1)    R15       1
    C34(1)    R16       1
    C35(1)    R17       1
    C36(1)    R18       1
    C37(1)    R19       1
    C38(1)    R20       1
    C39(1)    R21       1
RHS
    RHS1      R0        -3.0247751838953741e+02
    RHS1      R1        -2.8109997433340002e+01
    RHS1      R2        96
    RHS1      R3        82
    RHS1      R4        65
    RHS1      R5        50
    RHS1      R6        76
    RHS1      R7        60
    RHS1      R8        95
    RHS1      R9        53
    RHS1      R10       69
    RHS1      R11       75
    RHS1      R12       96
    RHS1      R13       71
    RHS1      R14       61
    RHS1      R15       87
    RHS1      R16       70
    RHS1      R17       52
    RHS1      R18       51
    RHS1      R19       88
    RHS1      R20       72
    RHS1      R21       2
BOUNDS
 UP BND1      I0(8)     2
 UP BND1      I1(9)     2
 UP BND1      I2(6)     2
 UP BND1      I3(10)    2
 UP BND1      I4(6)     2
 UP BND1      I5(9)     2
 UP BND1      I6(8)     2
 UP BND1      I7(8)     2
ENDATA
